words_hard_train/3187.qaiger
aag 127 16 0 1 111
2
4
8
12
16
20
24
28
36
44
56
74
92
112
130
216
254
6 3 5
10 6 9
14 10 13
18 14 17
22 18 21
26 22 25
30 26 29
32 27 28
34 31 33
38 3 37
40 2 36
42 39 41
46 5 45
48 4 44
50 47 49
52 40 50
54 53 49
58 9 57
60 8 56
62 59 61
64 54 63
66 55 62
68 65 67
70 42 68
72 67 61
76 13 75
78 12 74
80 77 79
82 72 81
84 73 80
86 83 85
88 70 86
90 85 79
94 17 93
96 16 92
98 95 97
100 90 99
102 91 98
104 101 103
106 104 50
108 88 106
110 103 97
114 21 113
116 20 112
118 115 117
120 110 119
122 111 118
124 121 123
126 108 124
128 123 117
132 25 131
134 24 130
136 133 135
138 128 137
140 129 136
142 139 141
144 126 143
146 35 144
148 46 2
150 48 3
152 149 151
154 152 53
156 7 8
158 157 11
160 154 159
162 161 69
164 155 158
166 163 165
168 11 12
170 169 15
172 167 170
174 166 171
176 175 87
178 173 177
180 15 16
182 181 19
184 183 104
186 179 185
188 182 105
190 187 189
192 19 20
194 193 23
196 194 125
198 190 197
200 195 124
202 199 201
204 23 24
206 205 27
208 206 142
210 203 209
212 207 143
214 211 213
218 28 217
220 29 216
222 219 221
224 141 135
226 223 224
228 222 225
230 227 229
232 127 143
234 231 233
236 230 232
238 235 237
240 214 238
242 146 241
244 215 239
246 245 147
248 243 247
250 34 145
252 250 241
254 249 253
i0 2 y1[0]
i1 2 y1[1]
i2 2 y1[2]
i3 2 y1[3]
i4 2 y1[4]
i5 2 y1[5]
i6 2 y1[6]
i7 2 y1[7]
i8 1 x1[0]
i9 1 x1[1]
i10 1 x1[2]
i11 1 x1[3]
i12 1 x1[4]
i13 1 x1[5]
i14 1 x1[6]
i15 1 x1[7]
o0 bv[0]
c
simplified
  <=
    subtract
      add
        2 y1
        1 x1
      -65
    unary minus
      2 y1
