words_hard_train/3187.qaiger.qdimacs
p cnf 127 334
a 65 37 108 46 18 22 56 28 0
e 1 2 3 4 5 6 7 8 9 10 11 12 13 14 15 16 17 19 20 21 23 24 25 26 27 29 30 31 32 33 34 35 36 38 39 40 41 42 43 44 45 47 48 49 50 51 52 53 54 55 57 58 59 60 61 62 63 64 66 67 68 69 70 71 72 73 74 75 76 77 78 79 80 81 82 83 84 85 86 87 88 89 90 91 92 93 94 95 96 97 98 99 100 101 102 103 104 105 106 107 109 110 111 112 113 114 115 116 117 118 119 120 121 122 123 124 125 126 127 0
1 2 3 0
-1 -3 0
-2 -3 0
-3 4 5 0
3 -5 0
-4 -5 0
-5 6 7 0
5 -7 0
-6 -7 0
-7 8 9 0
7 -9 0
-8 -9 0
-9 10 11 0
9 -11 0
-10 -11 0
-11 12 13 0
11 -13 0
-12 -13 0
-13 14 15 0
13 -15 0
-14 -15 0
13 -14 16 0
-13 -16 0
14 -16 0
15 16 17 0
-15 -17 0
-16 -17 0
1 18 19 0
-1 -19 0
-18 -19 0
-1 -18 20 0
1 -20 0
18 -20 0
19 20 21 0
-19 -21 0
-20 -21 0
2 22 23 0
-2 -23 0
-22 -23 0
-2 -22 24 0
2 -24 0
22 -24 0
23 24 25 0
-23 -25 0
-24 -25 0
-20 -25 26 0
20 -26 0
25 -26 0
26 24 27 0
-26 -27 0
-24 -27 0
4 28 29 0
-4 -29 0
-28 -29 0
-4 -28 30 0
4 -30 0
28 -30 0
29 30 31 0
-29 -31 0
-30 -31 0
-27 31 32 0
27 -32 0
-31 -32 0
27 -31 33 0
-27 -33 0
31 -33 0
32 33 34 0
-32 -34 0
-33 -34 0
-21 -34 35 0
21 -35 0
34 -35 0
33 30 36 0
-33 -36 0
-30 -36 0
6 37 38 0
-6 -38 0
-37 -38 0
-6 -37 39 0
6 -39 0
37 -39 0
38 39 40 0
-38 -40 0
-39 -40 0
-36 40 41 0
36 -41 0
-40 -41 0
36 -40 42 0
-36 -42 0
40 -42 0
41 42 43 0
-41 -43 0
-42 -43 0
-35 -43 44 0
35 -44 0
43 -44 0
42 39 45 0
-42 -45 0
-39 -45 0
8 46 47 0
-8 -47 0
-46 -47 0
-8 -46 48 0
8 -48 0
46 -48 0
47 48 49 0
-47 -49 0
-48 -49 0
-45 49 50 0
45 -50 0
-49 -50 0
45 -49 51 0
-45 -51 0
49 -51 0
50 51 52 0
-50 -52 0
-51 -52 0
-52 -25 53 0
52 -53 0
25 -53 0
-44 -53 54 0
44 -54 0
53 -54 0
51 48 55 0
-51 -55 0
-48 -55 0
10 56 57 0
-10 -57 0
-56 -57 0
-10 -56 58 0
10 -58 0
56 -58 0
57 58 59 0
-57 -59 0
-58 -59 0
-55 59 60 0
55 -60 0
-59 -60 0
55 -59 61 0
-55 -61 0
59 -61 0
60 61 62 0
-60 -62 0
-61 -62 0
-54 -62 63 0
54 -63 0
62 -63 0
61 58 64 0
-61 -64 0
-58 -64 0
12 65 66 0
-12 -66 0
-65 -66 0
-12 -65 67 0
12 -67 0
65 -67 0
66 67 68 0
-66 -68 0
-67 -68 0
-64 68 69 0
64 -69 0
-68 -69 0
64 -68 70 0
-64 -70 0
68 -70 0
69 70 71 0
-69 -71 0
-70 -71 0
-63 71 72 0
63 -72 0
-71 -72 0
17 -72 73 0
-17 -73 0
72 -73 0
-23 -1 74 0
23 -74 0
1 -74 0
-24 1 75 0
24 -75 0
-1 -75 0
74 75 76 0
-74 -76 0
-75 -76 0
-76 26 77 0
76 -77 0
-26 -77 0
3 -4 78 0
-3 -78 0
4 -78 0
78 5 79 0
-78 -79 0
-5 -79 0
-77 79 80 0
77 -80 0
-79 -80 0
80 34 81 0
-80 -81 0
-34 -81 0
77 -79 82 0
-77 -82 0
79 -82 0
81 82 83 0
-81 -83 0
-82 -83 0
5 -6 84 0
-5 -84 0
6 -84 0
84 7 85 0
-84 -85 0
-7 -85 0
83 -85 86 0
-83 -86 0
85 -86 0
-83 85 87 0
83 -87 0
-85 -87 0
87 43 88 0
-87 -88 0
-43 -88 0
86 88 89 0
-86 -89 0
-88 -89 0
7 -8 90 0
-7 -90 0
8 -90 0
90 9 91 0
-90 -91 0
-9 -91 0
91 -52 92 0
-91 -92 0
52 -92 0
89 92 93 0
-89 -93 0
-92 -93 0
-91 52 94 0
91 -94 0
-52 -94 0
93 94 95 0
-93 -95 0
-94 -95 0
9 -10 96 0
-9 -96 0
10 -96 0
96 11 97 0
-96 -97 0
-11 -97 0
-97 62 98 0
97 -98 0
-62 -98 0
-95 98 99 0
95 -99 0
-98 -99 0
97 -62 100 0
-97 -100 0
62 -100 0
99 100 101 0
-99 -101 0
-100 -101 0
11 -12 102 0
-11 -102 0
12 -102 0
102 13 103 0
-102 -103 0
-13 -103 0
-103 -71 104 0
103 -104 0
71 -104 0
101 104 105 0
-101 -105 0
-104 -105 0
103 71 106 0
-103 -106 0
-71 -106 0
105 106 107 0
-105 -107 0
-106 -107 0
-14 108 109 0
14 -109 0
-108 -109 0
14 -108 110 0
-14 -110 0
108 -110 0
109 110 111 0
-109 -111 0
-110 -111 0
70 67 112 0
-70 -112 0
-67 -112 0
111 -112 113 0
-111 -113 0
112 -113 0
-111 112 114 0
111 -114 0
-112 -114 0
113 114 115 0
-113 -115 0
-114 -115 0
63 71 116 0
-63 -116 0
-71 -116 0
115 116 117 0
-115 -117 0
-116 -117 0
-115 -116 118 0
115 -118 0
116 -118 0
117 118 119 0
-117 -119 0
-118 -119 0
-107 -119 120 0
107 -120 0
119 -120 0
-73 120 121 0
73 -121 0
-120 -121 0
107 119 122 0
-107 -122 0
-119 -122 0
122 73 123 0
-122 -123 0
-73 -123 0
121 123 124 0
-121 -124 0
-123 -124 0
-17 72 125 0
17 -125 0
-72 -125 0
-125 120 126 0
125 -126 0
-120 -126 0
124 126 127 0
-124 -127 0
-126 -127 0
127 0
